decision_x1=[0,2];
decision_x2=[0,2];
decision_x3=[0,2];
decision_x4=[0,2];
decision_x5=[0,2];
decision_x6=[0,2];
decision_x7=[0,2];
decision_x8=[0,2];
decision_x9=[0,2];
decision_x10=[0,2];
decision_x11=[0,2];
decision_x12=[0,2];
random_y1=[0,2];
random_y2=[0,2];
random_y3=[0,2];
random_y4=[0,2];
random_y5=[0,2];
random_y6=[0,2];
random_y7=[0,2];
random_y8=[0,2];
random_y9=[0,2];
random_y10=[0,2];
random_y11=[0,2];
random_y12=[0,2];
constraint_x2_x1=[
0,0,16|
0,1,58|
0,2,0.18|
1,0,88|
1,1,68|
1,2,46|
2,0,29|
2,1,29|
2,2,6.1|
];
constraint_x3_x2=[
0,0,31|
0,1,46|
0,2,95|
1,0,8.2|
1,1,8|
1,2,84|
2,0,34|
2,1,4.5|
2,2,34|
];
constraint_x4_x3=[
0,0,93|
0,1,14|
0,2,4.3|
1,0,38|
1,1,24|
1,2,87|
2,0,12|
2,1,70|
2,2,5|
];
constraint_x5_x1=[
0,0,18|
0,1,71|
0,2,78|
1,0,88|
1,1,14|
1,2,67|
2,0,86|
2,1,9.3|
2,2,84|
];
constraint_x5_x3=[
0,0,6.9|
0,1,86|
0,2,90|
1,0,86|
1,1,40|
1,2,74|
2,0,32|
2,1,51|
2,2,51|
];
constraint_x6_x1=[
0,0,34|
0,1,32|
0,2,89|
1,0,78|
1,1,6.1|
1,2,68|
2,0,57|
2,1,37|
2,2,74|
];
constraint_x6_x4=[
0,0,20|
0,1,34|
0,2,71|
1,0,49|
1,1,1|
1,2,90|
2,0,89|
2,1,35|
2,2,90|
];
constraint_x7_x2=[
0,0,30|
0,1,62|
0,2,14|
1,0,83|
1,1,17|
1,2,14|
2,0,80|
2,1,27|
2,2,4.8|
];
constraint_x7_x4=[
0,0,53|
0,1,75|
0,2,19|
1,0,47|
1,1,44|
1,2,65|
2,0,52|
2,1,53|
2,2,13|
];
constraint_x8_x1=[
0,0,98|
0,1,33|
0,2,28|
1,0,34|
1,1,80|
1,2,53|
2,0,60|
2,1,4.7|
2,2,44|
];
constraint_x8_x3=[
0,0,35|
0,1,5|
0,2,73|
1,0,51|
1,1,73|
1,2,1e+02|
2,0,62|
2,1,45|
2,2,39|
];
constraint_x8_x5=[
0,0,40|
0,1,13|
0,2,33|
1,0,29|
1,1,80|
1,2,2.4|
2,0,98|
2,1,35|
2,2,0.49|
];
constraint_x8_x6=[
0,0,14|
0,1,22|
0,2,12|
1,0,57|
1,1,34|
1,2,45|
2,0,15|
2,1,3.7|
2,2,51|
];
constraint_x8_x7=[
0,0,90|
0,1,72|
0,2,56|
1,0,55|
1,1,67|
1,2,49|
2,0,6.4|
2,1,92|
2,2,52|
];
constraint_x9_x2=[
0,0,12|
0,1,26|
0,2,58|
1,0,94|
1,1,25|
1,2,85|
2,0,58|
2,1,56|
2,2,2.2|
];
constraint_x9_x3=[
0,0,11|
0,1,69|
0,2,25|
1,0,94|
1,1,54|
1,2,64|
2,0,6|
2,1,56|
2,2,89|
];
constraint_x9_x4=[
0,0,81|
0,1,8|
0,2,36|
1,0,54|
1,1,64|
1,2,58|
2,0,75|
2,1,73|
2,2,72|
];
constraint_x9_x5=[
0,0,2.6|
0,1,85|
0,2,1e+02|
1,0,16|
1,1,36|
1,2,11|
2,0,32|
2,1,37|
2,2,5.9|
];
constraint_x10_x2=[
0,0,52|
0,1,27|
0,2,83|
1,0,63|
1,1,94|
1,2,56|
2,0,25|
2,1,31|
2,2,77|
];
constraint_x10_x3=[
0,0,11|
0,1,58|
0,2,44|
1,0,70|
1,1,5|
1,2,34|
2,0,54|
2,1,31|
2,2,14|
];
constraint_x10_x4=[
0,0,40|
0,1,97|
0,2,76|
1,0,15|
1,1,13|
1,2,16|
2,0,17|
2,1,38|
2,2,50|
];
constraint_x10_x5=[
0,0,89|
0,1,88|
0,2,42|
1,0,4.8|
1,1,77|
1,2,55|
2,0,73|
2,1,78|
2,2,6.2|
];
constraint_x10_x7=[
0,0,4.4|
0,1,5.9|
0,2,23|
1,0,9.7|
1,1,13|
1,2,67|
2,0,1e+02|
2,1,82|
2,2,1e+02|
];
constraint_x10_x9=[
0,0,12|
0,1,75|
0,2,99|
1,0,10|
1,1,0.58|
1,2,61|
2,0,50|
2,1,19|
2,2,9.5|
];
constraint_x11_x2=[
0,0,63|
0,1,73|
0,2,72|
1,0,57|
1,1,1|
1,2,60|
2,0,71|
2,1,89|
2,2,72|
];
constraint_x11_x6=[
0,0,88|
0,1,56|
0,2,29|
1,0,22|
1,1,57|
1,2,24|
2,0,49|
2,1,74|
2,2,89|
];
constraint_x12_x1=[
0,0,15|
0,1,53|
0,2,0.05|
1,0,93|
1,1,82|
1,2,1.5|
2,0,2.9|
2,1,28|
2,2,22|
];
constraint_x12_x2=[
0,0,87|
0,1,16|
0,2,41|
1,0,60|
1,1,61|
1,2,43|
2,0,97|
2,1,41|
2,2,79|
];
constraint_x12_x3=[
0,0,38|
0,1,42|
0,2,33|
1,0,48|
1,1,43|
1,2,68|
2,0,97|
2,1,60|
2,2,82|
];
constraint_x12_x5=[
0,0,84|
0,1,22|
0,2,55|
1,0,23|
1,1,33|
1,2,75|
2,0,90|
2,1,54|
2,2,47|
];
constraint_x12_x6=[
0,0,5.6|
0,1,76|
0,2,46|
1,0,69|
1,1,52|
1,2,24|
2,0,53|
2,1,14|
2,2,30|
];
constraint_x12_x7=[
0,0,45|
0,1,47|
0,2,97|
1,0,81|
1,1,67|
1,2,12|
2,0,75|
2,1,59|
2,2,74|
];
constraint_x12_x9=[
0,0,35|
0,1,12|
0,2,21|
1,0,68|
1,1,61|
1,2,94|
2,0,53|
2,1,46|
2,2,66|
];
constraint_x1_y1=[
0,0,91|
0,1,98|
0,2,25|
1,0,27|
1,1,70|
1,2,19|
2,0,91|
2,1,85|
2,2,88|
];
constraint_x2_y2=[
0,0,42|
0,1,53|
0,2,45|
1,0,96|
1,1,57|
1,2,5.6|
2,0,71|
2,1,87|
2,2,66|
];
constraint_x3_y3=[
0,0,0.021|
0,1,93|
0,2,0.37|
1,0,79|
1,1,26|
1,2,97|
2,0,48|
2,1,67|
2,2,80|
];
constraint_x4_y4=[
0,0,39|
0,1,49|
0,2,35|
1,0,68|
1,1,85|
1,2,32|
2,0,18|
2,1,81|
2,2,96|
];
constraint_x5_y5=[
0,0,13|
0,1,69|
0,2,1.2|
1,0,92|
1,1,74|
1,2,11|
2,0,9.7|
2,1,62|
2,2,82|
];
constraint_x6_y6=[
0,0,9.9|
0,1,76|
0,2,49|
1,0,38|
1,1,28|
1,2,18|
2,0,83|
2,1,27|
2,2,78|
];
constraint_x7_y7=[
0,0,86|
0,1,50|
0,2,5.5|
1,0,14|
1,1,99|
1,2,81|
2,0,36|
2,1,93|
2,2,13|
];
constraint_x8_y8=[
0,0,96|
0,1,4.5|
0,2,64|
1,0,97|
1,1,89|
1,2,70|
2,0,35|
2,1,38|
2,2,63|
];
constraint_x9_y9=[
0,0,43|
0,1,28|
0,2,95|
1,0,61|
1,1,82|
1,2,67|
2,0,65|
2,1,16|
2,2,2.5|
];
constraint_x10_y10=[
0,0,72|
0,1,54|
0,2,94|
1,0,80|
1,1,82|
1,2,66|
2,0,72|
2,1,43|
2,2,20|
];
constraint_x11_y11=[
0,0,94|
0,1,80|
0,2,13|
1,0,53|
1,1,91|
1,2,50|
2,0,46|
2,1,93|
2,2,94|
];
constraint_x12_y12=[
0,0,43|
0,1,14|
0,2,86|
1,0,15|
1,1,94|
1,2,54|
2,0,9.7|
2,1,17|
2,2,91|
];
initial_distribution_y1=[0.17,0.36,0.47];
initial_distribution_y2=[0.68,0.12,0.2];
initial_distribution_y3=[0.48,0.3,0.22];
initial_distribution_y4=[0.12,0.074,0.81];
initial_distribution_y5=[0.029,0.44,0.53];
initial_distribution_y6=[0.42,0.39,0.19];
initial_distribution_y7=[0.37,0.07,0.56];
initial_distribution_y8=[0.16,0.42,0.42];
initial_distribution_y9=[0.34,0.14,0.52];
initial_distribution_y10=[0.45,0.32,0.23];
initial_distribution_y11=[0.024,0.25,0.73];
initial_distribution_y12=[0.34,0.48,0.18];
transition_y1=[
0.37,0.21,0.42|
0.38,0.37,0.25|
0.42,0.38,0.2|
];
transition_y2=[
0.37,0.43,0.2|
0.079,0.41,0.51|
0.44,0.4,0.16|
];
transition_y3=[
0.41,0.34,0.25|
0.07,0.6,0.33|
0.1,0.55,0.35|
];
transition_y4=[
0.5,0.1,0.39|
0.34,0.57,0.091|
0.13,0.81,0.065|
];
transition_y5=[
0.34,0.24,0.42|
0.42,0.23,0.35|
0.31,0.41,0.28|
];
transition_y6=[
0.33,0.51,0.16|
0.058,0.17,0.77|
0.095,0.29,0.62|
];
transition_y7=[
0.14,0.48,0.38|
0.56,0.24,0.2|
0.097,0.79,0.11|
];
transition_y8=[
0.37,0.29,0.34|
0.37,0.34,0.29|
0.24,0.28,0.48|
];
transition_y9=[
0.22,0.34,0.43|
0.17,0.65,0.18|
0.058,0.21,0.73|
];
transition_y10=[
0.28,0.23,0.49|
0.56,0.27,0.17|
0.67,0.22,0.11|
];
transition_y11=[
0.22,0.46,0.32|
0.48,0.0078,0.51|
0.61,0.25,0.14|
];
transition_y12=[
0.36,0.27,0.37|
0.55,0.2,0.25|
0.17,0.24,0.59|
];
